c b=4,c=1041
p cnf 18 26
4 -8 0
4 -12 0
4 -18 0
-4 8 0
-4 12 0
-4 18 0
3 -7 0
3 -11 0
3 -17 0
-3 7 0
-3 11 0
-3 17 0
2 -6 0
2 -10 0
2 -16 0
-2 6 0
-2 10 0
-2 16 0
1 -5 0
1 -9 0
1 -15 0
-1 5 0
-1 9 0
-1 15 0
-13 0
-14 0
